set UsingKeys :=
  i n
  e r
  h e
  o n
  t h
  e n
  e s
  t e
  a n
  r e
  o r
  d e
  a t
  e d
  t i
  h i
  i d
  a r
  a s
  i s
  s t
  m e
  n t
  n g
  n d
  r u
  i c
  o u
  a l
  e a
  l e
  r i
  t o
  v e
  i o
  o f
  u m
  c e
  e c
  m p
  s e
  s i
  a c
  u n
  c o
  e m
  f o
  l a
  n s
  i t
  r s
  c h
  e e
  h a
  n c
  o m
  w e
  c a
  c t
  i l;